NAME : netgen20-5_25
COMMENT : Generated using the function generateClusteredNetwork from the R-package netgen (Bossek,2015) - Number of clusters: 5
TYPE : TSP
DIMENSION : 20
EDGE_WEIGHT_TYPE : EUC_2D
NODE_COORD_SECTION
1 14.6917337913 90.4893075515
2 20.0433265908 85.3499219037
3 18.0916290934 95.5516885355
4 18.6691284956 94.93955076
5 7.2550140179 35.002218917
6 2.9546562457 22.1297504543
7 3.933008533 22.5678290341
8 2.137356724 34.016088695
9 91.6815048587 52.1336924932
10 81.8123147876 38.3478424887
11 90.3419519735 44.2297597067
12 91.8780305535 39.4656647755
13 63.6630176898 7.2477243606
14 70.2376851378 14.922678113
15 66.8709277921 11.9174608782
16 67.8511134651 14.8808078733
17 48.7778230765 61.6677964119
18 40.2639900693 64.9154900601
19 41.9686335654 67.3796432547
20 42.2696597137 59.1066720522
EOF
